language Essence 1.3

letting blksize_delta be function(1 --> 1, 2 --> 1, 3 --> 1)
letting maxcars be function(1 --> 7, 2 --> 7, 3 --> 7)
letting n_cars be 146
letting n_classes be 2
letting n_options be 3
letting quantity be function(1 --> 93, 2 --> 53)
letting usage be relation((1, 1), (1, 2), (2, 3))
$ Visualisation for usage
$ 1 1
$ 1 2
$ 2 3

